1
69
27
101
53
58
40
21
73
72
74
22
41
75
56
23
39
4
55
25
54
80
68
77
3
79
33
81
9
51
20
30
70
31
88
7
82
48
47
36
49
19
11
62
10
90
32
63
64
46
8
45
17
84
5
60
83
18
52
89
6
94
95
92
37
98
59
99
93
85
91
100
97
87
2
57
15
43
42
14
44
16
61
86
38
96
13
26
12
76
50
28
29
24
78
34
35
71
66
65
67
1
